
Gurobi 9.1.2 (win64) logging started Tue Dec  7 13:04:23 2021

Gurobi Optimizer version 9.1.2 build v9.1.2rc0 (win64)
Thread count: 8 physical cores, 8 logical processors, using up to 8 threads
Optimize a model with 1 rows, 34 columns and 33 nonzeros
Model fingerprint: 0xc16c89b4
Variable types: 1 continuous, 33 integer (33 binary)
Coefficient statistics:
  Matrix range     [2e+00, 1e+01]
  Objective range  [1e+00, 1e+00]
  Bounds range     [1e+01, 1e+01]
  RHS range        [1e+01, 1e+01]
Presolve time: 0.00s
Presolved: 1 rows, 34 columns, 33 nonzeros
Variable types: 1 continuous, 33 integer (33 binary)

Root simplex log...

Iteration    Objective       Primal Inf.    Dual Inf.      Time
       0   -9.7844017e+00   1.957971e-01   0.000000e+00     15s
       3   -9.7844017e+00   0.000000e+00   0.000000e+00     15s

Root relaxation: objective -9.784402e+00, 3 iterations, 0.00 seconds

    Nodes    |    Current Node    |     Objective Bounds      |     Work
 Expl Unexpl |  Obj  Depth IntInf | Incumbent    BestBd   Gap | It/Node Time

*    0     0               0      -9.7844017   -9.78440  0.00%     -   14s

Cutting planes:
  Lazy constraints: 2

Explored 0 nodes (6 simplex iterations) in 14.94 seconds
Thread count was 8 (of 8 available processors)

Solution count 1: -9.7844 
No other solutions better than -9.7844

Optimal solution found (tolerance 1.00e-04)
Best objective -9.784401694640e+00, best bound -9.784401694640e+00, gap 0.0000%

User-callback calls 72, time in user-callback 18.69 sec
